### Angle of repose experiment in uniform magnetic field


### Initialization
# Preliminaries
units           si
atom_style      hybrid granular dipole
atom_modify     sort 10000 0

# periodic x boundaries, fixed y boundaries, fixed -z for floor and fixed shrink wrap for cieling
boundary        f f f

#LIGGGHTS-Public shouuld produce the same answers for any newton flag setting, besides round off
newton          off
soft_particles yes
communicate     single vel yes

# the product of the processors must equal P, the number of processors used when running the file: mpirun -np 4 ...
processors      2 2 2

# Declare domain
region          domain block 0 .126 0 .018 0 .160 units box
create_box      2 domain

# Neighbor skin style - atom pairs within a neighbor cutoff distance = force cutoff + skin distance, styele = bin
neighbor        0.003 bin
# neigh_modify delay 0, this is the default, rebuild neighbor list every timestep
neigh_modify    delay 0

### Setup
# Material and interaction properties required
fix             m1 all property/global youngsModulus peratomtype 70e6 70e6
fix             m2 all property/global poissonsRatio peratomtype 0.24 0.24
fix             m3 all property/global coefficientRestitution peratomtypepair 2 0.2 0.2 0.2 0.2
fix             m4 all property/global coefficientFriction peratomtypepair 2 0.6 0.6 0.6 0.6
fix             m5 all property/global coefficientRollingFriction peratomtypepair  2 0.4 0.4 0.4 0.4
fix             m6 all property/global coefficientRollingViscousDamping peratomtypepair  2 0.4 0.4 0.4 0.4
fix             m7 all property/global coeffRollingStiffness scalar 10
fix             m8 all property/global cohesionEnergyDensity peratomtypepair 2 10 10 10 10

fix             m9 all property/global magneticSusceptibility peratomtype 1 1

## box walls - define simulation

fix		        wall_y1 all wall/gran model hertz tangential history cohesion sjkr rolling_friction epsd primitive type 2 yplane 0.0 	
fix		        wall_y2 all wall/gran model hertz tangential history cohesion sjkr rolling_friction epsd primitive type 2 yplane 0.018  	
fix		        wall_z1 all wall/gran model hertz tangential history cohesion sjkr rolling_friction epsd primitive type 2 zplane 0.0        #floor
fix             wall_x1 all wall/gran model hertz tangential history cohesion sjkr rolling_friction epsd primitive type 2 xplane 0.0            
fix             wall_x2 all wall/gran model hertz tangential history cohesion sjkr rolling_friction epsd primitive type 2 xplane 0.126

## wall in centre which is removed to simulate mass wasting
fix             wall_rm all wall/gran model hertz tangnetial history cohesion sjkr rolling_friction epsd primitive type 2 xplane 0.063

## Pair style
pair_style      gran model hertz tangential history cohesion sjkr rolling_friction epsd torsionTorque on
pair_coeff	    * *  # the asterisks set force field coeefficients for all atom types, but then no other args? ASK TOM


# Particle insertion
fix             particles all particletemplate/sphere 123457 atom_type 1 density constant 2500 &
                radius constant 0.0005
fix             pdd1 all particledistribution/discrete 15487517 1 particles 1.0

# region and insertion
group		nve_group region domain

# Create stopper wall 
fix             stopper all wall/gran model hertz tangential history primitive type 2 zplane 0.056


### Detailed settings
# apply nve integration to all particles that are inserted as single particles
fix		integr nve_group nve/sphere

# Gravity
fix             grav all gravity 9.81 vector 0.0 0.0 -1.0

# Time step
timestep        .000001 #seconds (1 microsecond)

## Thermo settings
# thermo style custom says what thermo data we want printed at each thermo timestep - timestep, num atoms, kinetic energy, volume
thermo_style 	custom step atoms ke vol
# thermo output every 1000 timesteps
thermo		1000
# LIGGGHTS will ignore last particles and will not normalize against num atoms
thermo_modify	lost ignore norm no

# Check time step and initialize dump file
fix             ctg all check/timestep/gran 1 0.01 0.01
run             1
unfix           ctg

# Create imaging information
dump            dmp all custom 100000 post/dump*.post id type x y z vx vy vz radius fx fy fz mass

# STL dump files
dump		    dumpstl1 all mesh/stl 1000 post_stl/dumpcad*.stl

### execution and further settings

# Fill the hopper
run             150000 upto


# pull the stopper
unfix           stopper

run             30000

# fix magnetic
fix	            mag all magnetic    0   0   6e-4

run             30000